small
0 27 0.65
1 28 0.71
2 30 0.56
3 25 0.64
4 32 0.8
5 34 0.68
6 30 0.59
7 31 0.71
8 26 0.58
9 30 0.73
10 25 0.52
11 34 0.56
12 33 0.43
13 31 0.45
14 26 0.75
medium
0 251 31.81
1 281 38.03
2 263 74.02
3 298 27.97
4 278 62.86
5 282 26.43
6 285 35.26
7 279 84.71
8 277 48.43
9 266 27.41
10 273 46.95
11 288 71.25
12 277 83.54
13 281 80.09
14 257 36.44
large
0 1449 600.19
1 1452 600.15
2 1547 591.07
3 1479 600.41
4 1537 600.51
5 1455 600.09
6 1462 600.96
7 1484 600.91
8 1534 600.29
9 1466 600.63
10 1468 584.05
11 1499 600.16
12 1439 600.06
13 1460 600.59
14 1513 600.37
